<number of tasks>
50

<cycle time>
1000

<order strength>
0.595


<task times>
1 467
2 400
3 51
4 187
5 295
6 176
7 189
8 147
9 49
10 271
11 266
12 106
13 161
14 313
15 123
16 48
17 531
18 245
19 176
20 44
21 286
22 126
23 222
24 327
25 106
26 138
27 186
28 551
29 131
30 141
31 22
32 231
33 142
34 136
35 419
36 107
37 263
38 337
39 241
40 472
41 278
42 224
43 94
44 327
45 28
46 225
47 132
48 236
49 312
50 551

<precedence relations>
1,5
2,7
3,6
3,8
3,9
4,15
5,12
6,11
7,10
8,12
8,13
8,14
8,15
9,12
9,13
9,14
9,15
10,16
11,17
12,17
12,18
12,19
13,17
13,18
13,19
14,17
14,18
14,19
15,17
15,18
15,19
16,20
17,21
17,22
18,21
18,22
19,21
19,22
20,23
21,24
21,25
21,26
22,24
22,25
22,26
23,28
24,27
24,29
24,30
24,31
24,32
25,29
25,30
25,31
25,32
26,29
26,30
26,31
26,32
27,34
28,36
29,33
29,35
29,37
29,38
29,41
30,37
30,38
31,37
31,45
32,38
32,45
32,47
33,39
34,41
35,40
36,41
37,42
37,47
37,49
38,42
38,49
39,45
40,43
41,45
41,46
41,47
42,44
43,49
44,48
45,50
46,49
46,50

<end>
